webassembly/ejemplos_dzn/13/folder13_json_0.dzn
TERM = { '.', 's(5)', 's(2)', 's(4)', 'in_1', 'local_0', 'local_1', 's(6)', 's(1)', 's(0)', 's(7)', 's(3)', 'in_0'};
null = '.';
s = 13;
n = 9;
ndeps = 6;
max_registers_sz = 4;
NR = 1;
registers = [|'local_0', 'in_0'|];
dependencies = [|'i32.load16_s_1', 'call[function_index(0)]_6', |'call[function_index(0)]_6', 'i32.load16_u_8', |'i32.store8_9', 'i32.load8_s_11', |'i32.load8_s_3', 'call[function_index(0)]_6', |'i32.load_5', 'call[function_index(0)]_6', |'i32.load16_u_8', 'i32.store8_9'|];
GET_ENUM = { GET1, GET2, GET3, GET4, GET5};
SET_ENUM = { SET1, SET2, SET3, SET4, SET5};
TEE_ENUM = { TEE1, TEE2, TEE3, TEE4, TEE5};
N = 11;
OP = { 'i32.add_0', 'call[function_index(0)]_6', 'i32.load16_s_1', 'i32.const_0', 'i32.load8_s_3', 'i32.load_5', 'i32.add_1', 'i32.load16_u_8', 'i32.store8_9', 'i32.load8_s_11', 'local.get_0' };
in_ops = [2, 0, 1, 0, 1, 1, 2, 1, 2, 1, 0 ];
out_ops = [1, 0, 1, 1, 1, 1, 1, 1, 0, 1, 1 ];
in1 = ['s(5)', '.', 'in_0', '.', 's(7)', 'local_1', 's(2)', 's(3)', 's(4)', 'local_1', '.' ];
in2 = ['in_1', '.', '.', '.', '.', '.', 's(1)', '.', 's(0)', '.', '.' ];
in3 = ['.', '.', '.', '.', '.', '.', '.', '.', '.', '.', '.' ];
out1 = ['s(6)', '.', 's(0)', 's(7)', 's(1)', 's(2)', 's(3)', 's(4)', '.', 's(5)', 'local_1' ];
out2 = ['.', '.', '.', '.', '.', '.', '.', '.', '.', '.', '.' ];
out3 = ['.', '.', '.', '.', '.', '.', '.', '.', '.', '.', '.' ];
comm = [true, false, false, false, false, false, true, false, false, false, false ];
gas = [1, 1, 1, 1, 1, 1, 1, 1, 1, 1, 1 ];
sz = [1, 1, 1, 1, 1, 1, 1, 1, 1, 1, 1 ];
stor = [false, true, false, false, false, false, false, false, true, false, false ];
lb = [ 1, 1, 1, 1, 1, 1, 1, 1, 1, 1, 1 ];
ub = [ 13, 13, 13, 13, 13, 13, 13, 13, 13, 13, 13 ];
startstack = [ 'in_0', 'in_1', null, null, null, null, null, null, null ];
endstack = [ 's(6)', null, null, null, null, null, null, null, null ];
